Traveling Salesman Problem/TSP_generados/Aleatorio1620390851_5.tsp
NAME: Aleatorio1620390851_5.tsp
COMMENT: Randomly generated scenario
TYPE: TSP
DIMENSION: 5
EDGE_WEIGHT_TYPE: ATT
NODE_COORD_SECTION
1 35.38 30.88
2 42.74 38.81
3 39.61 28.05
4 27.48 33.74
5 17.08 43.12
