Traveling Salesman Problem/TSP_generados/Aleatorio1620390851_5.opt.tour
NAME: Aleatorio1620390851_5.opt.tour
COMMENT: Optimal solution for Aleatorio1620390851_5 (64.7217503661497)
TYPE: TOUR
DIMENSION: 5
TOUR_SECTION
1 3 2 5 4
-1
EOF
